p cnf 66 220
c p weight -25 1 0
c p weight 25 -1 0
c p weight 29 6.12323399573676603586882014729198302312846062338790031898128063403419218957424163818359375E-17 0
c p weight -29 1 0
c p weight 30 1 0
c p weight -30 1 0
c p weight -27 1 0
c p weight 27 -1 0
c p weight -31 1 0
c p weight 31 -1 0
c p weight -33 1 0
c p weight 33 -1 0
c p weight -36 1 0
c p weight 36 -1 0
c p weight -39 1 0
c p weight 39 -1 0
c p weight -42 1 0
c p weight 42 -1 0
c p weight -45 1 0
c p weight 45 -1 0
c p weight -48 1 0
c p weight 48 -1 0
c p weight -51 1 0
c p weight 51 -1 0
c p weight -54 1 0
c p weight 54 -1 0
c p weight -57 1 0
c p weight 57 -1 0
c p weight -60 1 0
c p weight 60 -1 0
c p weight -63 1 0
c p weight 63 -1 0
c p weight 66 0.5 0
c p weight -66 1 0
66 0
-23 0
-21 0
-19 0
-17 0
-15 0
-13 0
-11 0
-9 0
-7 0
-5 0
-3 0
-1 0
-25 23 0
-25 24 0
25 -23 -24 0
26 23 -24 0
26 -23 24 0
-26 23 24 0
-26 -23 -24 0
-27 28 0
-27 26 0
-27 -23 0
27 -28 23 -26 0
28 -23 26 0
-28 23 26 0
-29 26 0
28 -29 -23 0
-28 -29 23 0
28 29 23 -26 0
-28 29 -23 -26 0
-30 26 0
28 -30 23 0
-28 -30 -23 0
28 30 -23 -26 0
-28 30 23 -26 0
-31 28 0
-31 26 0
31 -28 -26 0
32 28 -26 0
32 -28 26 0
-32 28 26 0
-32 -28 -26 0
-33 28 0
-33 22 0
-33 21 -32 0
-33 -21 32 0
33 -28 21 32 -22 0
33 -28 -21 -32 -22 0
35 28 -21 0
35 -28 21 0
-35 28 21 0
-35 -28 -21 0
34 32 -22 0
34 -32 22 0
-34 32 22 0
-34 -32 -22 0
-36 35 0
-36 20 0
-36 19 -22 0
-36 -19 22 0
36 -35 19 22 -20 0
36 -35 -19 -22 -20 0
38 35 -19 0
38 -35 19 0
-38 35 19 0
-38 -35 -19 0
37 22 -20 0
37 -22 20 0
-37 22 20 0
-37 -22 -20 0
-39 38 0
-39 18 0
-39 17 -20 0
-39 -17 20 0
39 -38 17 20 -18 0
39 -38 -17 -20 -18 0
41 38 -17 0
41 -38 17 0
-41 38 17 0
-41 -38 -17 0
40 20 -18 0
40 -20 18 0
-40 20 18 0
-40 -20 -18 0
-42 41 0
-42 16 0
-42 15 -18 0
-42 -15 18 0
42 -41 15 18 -16 0
42 -41 -15 -18 -16 0
44 41 -15 0
44 -41 15 0
-44 41 15 0
-44 -41 -15 0
43 18 -16 0
43 -18 16 0
-43 18 16 0
-43 -18 -16 0
-45 44 0
-45 14 0
-45 13 -16 0
-45 -13 16 0
45 -44 13 16 -14 0
45 -44 -13 -16 -14 0
47 44 -13 0
47 -44 13 0
-47 44 13 0
-47 -44 -13 0
46 16 -14 0
46 -16 14 0
-46 16 14 0
-46 -16 -14 0
-48 47 0
-48 12 0
-48 11 -14 0
-48 -11 14 0
48 -47 11 14 -12 0
48 -47 -11 -14 -12 0
50 47 -11 0
50 -47 11 0
-50 47 11 0
-50 -47 -11 0
49 14 -12 0
49 -14 12 0
-49 14 12 0
-49 -14 -12 0
-51 50 0
-51 10 0
-51 9 -12 0
-51 -9 12 0
51 -50 9 12 -10 0
51 -50 -9 -12 -10 0
53 50 -9 0
53 -50 9 0
-53 50 9 0
-53 -50 -9 0
52 12 -10 0
52 -12 10 0
-52 12 10 0
-52 -12 -10 0
-54 53 0
-54 8 0
-54 7 -10 0
-54 -7 10 0
54 -53 7 10 -8 0
54 -53 -7 -10 -8 0
56 53 -7 0
56 -53 7 0
-56 53 7 0
-56 -53 -7 0
55 10 -8 0
55 -10 8 0
-55 10 8 0
-55 -10 -8 0
-57 56 0
-57 6 0
-57 5 -8 0
-57 -5 8 0
57 -56 5 8 -6 0
57 -56 -5 -8 -6 0
59 56 -5 0
59 -56 5 0
-59 56 5 0
-59 -56 -5 0
58 8 -6 0
58 -8 6 0
-58 8 6 0
-58 -8 -6 0
-60 59 0
-60 4 0
-60 3 -6 0
-60 -3 6 0
60 -59 3 6 -4 0
60 -59 -3 -6 -4 0
62 59 -3 0
62 -59 3 0
-62 59 3 0
-62 -59 -3 0
61 6 -4 0
61 -6 4 0
-61 6 4 0
-61 -6 -4 0
-63 62 0
-63 2 0
-63 1 -4 0
-63 -1 4 0
63 -62 1 4 -2 0
63 -62 -1 -4 -2 0
65 62 -1 0
65 -62 1 0
-65 62 1 0
-65 -62 -1 0
64 4 -2 0
64 -4 2 0
-64 4 2 0
-64 -4 -2 0
-65 0
-62 0
-64 0
-59 0
-61 0
-56 0
-58 0
-53 0
-55 0
-50 0
-52 0
-47 0
-49 0
-44 0
-46 0
-41 0
-43 0
-38 0
-40 0
-35 0
-37 0
-28 0
-34 0
